NAME : portcgen-25-2
COMMENT : portcgen N=25, seed=2
TYPE : TSP
DIMENSION : 25
EDGE_WEIGHT_TYPE : EUC_2D
NODE_COORD_SECTION
1 295921 83156
2 505256 134732
3 -29076 -50516
4 -208092 -120553
5 -105556 -137707
6 240120 -289345
7 208652 159863
8 -380561 -89590
9 268000 -65649
10 -72137 223443
11 67889 30251
12 191910 324242
13 -176287 159140
14 -24710 -204263
15 25845 -36433
16 25641 -8380
17 -78687 169329
18 77296 -324522
19 449177 -70984
20 -238139 220928
21 -182517 -180452
22 195523 254002
23 80659 18145
24 -212096 216757
25 95418 -39323
